(set-logic QF_UF)
(declare-fun A0 () Bool)
(declare-fun A1 () Bool)
(declare-fun A2 () Bool)
(declare-fun A3 () Bool)
(declare-fun A4 () Bool)
(declare-fun A5 () Bool)
(declare-fun A6 () Bool)
(declare-fun A7 () Bool)
(declare-fun A8 () Bool)
(declare-fun A9 () Bool)
(declare-fun A10 () Bool)
(declare-fun A11 () Bool)
(declare-fun A12 () Bool)
(declare-fun A13 () Bool)
(declare-fun A14 () Bool)
(declare-fun A15 () Bool)
(declare-fun A16 () Bool)
(declare-fun A17 () Bool)
(declare-fun A18 () Bool)
(declare-fun A19 () Bool)
(declare-fun A20 () Bool)
(declare-fun A21 () Bool)
(declare-fun A22 () Bool)
(declare-fun A23 () Bool)
(declare-fun A24 () Bool)
(assert (let ((.def_0 (and A22 A1))) (let ((.def_1 (not A2))) (let ((.def_2 (and .def_1 A18))) (let ((.def_3 (not .def_2))) (let ((.def_4 (and .def_3 .def_0))) (let ((.def_5 (not A23))) (let ((.def_6 (not A7))) (let ((.def_7 (and .def_6 .def_5))) (let ((.def_8 (not A8))) (let ((.def_9 (not A19))) (let ((.def_10 (and .def_9 .def_8))) (let ((.def_11 (not .def_10))) (let ((.def_12 (and .def_11 .def_7))) (let ((.def_13 (not .def_12))) (let ((.def_14 (or .def_13 .def_4))) (let ((.def_15 (not A9))) (let ((.def_16 (or .def_15 A5))) (let ((.def_17 (not .def_16))) (let ((.def_18 (and A12 A2))) (let ((.def_19 (or .def_18 .def_17))) (let ((.def_20 (not A24))) (let ((.def_21 (and A6 .def_20))) (let ((.def_22 (not .def_21))) (let ((.def_23 (or A12 A22))) (let ((.def_24 (not .def_23))) (let ((.def_25 (or .def_24 .def_22))) (let ((.def_26 (and .def_25 .def_19))) (let ((.def_27 (or .def_26 .def_14))) (let ((.def_28 (not A10))) (let ((.def_29 (and .def_28 .def_9))) (let ((.def_30 (not .def_29))) (let ((.def_31 (not A22))) (let ((.def_32 (or .def_31 .def_8))) (let ((.def_33 (not .def_32))) (let ((.def_34 (or .def_33 .def_30))) (let ((.def_35 (not .def_34))) (let ((.def_36 (and A12 .def_1))) (let ((.def_37 (not .def_36))) (let ((.def_38 (not A4))) (let ((.def_39 (or .def_38 A18))) (let ((.def_40 (not .def_39))) (let ((.def_41 (or .def_40 .def_37))) (let ((.def_42 (not .def_41))) (let ((.def_43 (or .def_42 .def_35))) (let ((.def_44 (not A0))) (let ((.def_45 (= .def_44 A3))) (let ((.def_46 (not .def_45))) (let ((.def_47 (and .def_1 A7))) (let ((.def_48 (and .def_47 .def_46))) (let ((.def_49 (not .def_48))) (let ((.def_50 (and A8 A4))) (let ((.def_51 (not A1))) (let ((.def_52 (not A6))) (let ((.def_53 (= .def_52 .def_51))) (let ((.def_54 (not .def_53))) (let ((.def_55 (and .def_54 .def_50))) (let ((.def_56 (and .def_55 .def_49))) (let ((.def_57 (or .def_56 .def_43))) (let ((.def_58 (and .def_57 .def_27))) (let ((.def_59 (not .def_58))) (let ((.def_60 (not A11))) (let ((.def_61 (and .def_60 A23))) (let ((.def_62 (and A23 A10))) (let ((.def_63 (not .def_62))) (let ((.def_64 (and .def_63 .def_61))) (let ((.def_65 (= A24 A17))) (let ((.def_66 (not .def_65))) (let ((.def_67 (not A17))) (let ((.def_68 (or A10 .def_67))) (let ((.def_69 (not .def_68))) (let ((.def_70 (or .def_69 .def_66))) (let ((.def_71 (and .def_70 .def_64))) (let ((.def_72 (not .def_71))) (let ((.def_73 (not A3))) (let ((.def_74 (or .def_73 .def_15))) (let ((.def_75 (not .def_74))) (let ((.def_76 (= .def_15 A4))) (let ((.def_77 (or .def_76 .def_75))) (let ((.def_78 (= A8 .def_67))) (let ((.def_79 (not .def_78))) (let ((.def_80 (or .def_5 A24))) (let ((.def_81 (not .def_80))) (let ((.def_82 (or .def_81 .def_79))) (let ((.def_83 (or .def_82 .def_77))) (let ((.def_84 (not .def_83))) (let ((.def_85 (and .def_84 .def_72))) (let ((.def_86 (not .def_85))) (let ((.def_87 (not A5))) (let ((.def_88 (and .def_60 .def_87))) (let ((.def_89 (or A3 .def_6))) (let ((.def_90 (or .def_89 .def_88))) (let ((.def_91 (not .def_90))) (let ((.def_92 (not A20))) (let ((.def_93 (or A15 .def_92))) (let ((.def_94 (not .def_93))) (let ((.def_95 (not A16))) (let ((.def_96 (or .def_95 A22))) (let ((.def_97 (or .def_96 .def_94))) (let ((.def_98 (not .def_97))) (let ((.def_99 (and .def_98 .def_91))) (let ((.def_100 (not .def_99))) (let ((.def_101 (or .def_92 .def_52))) (let ((.def_102 (not .def_101))) (let ((.def_103 (and A10 .def_38))) (let ((.def_104 (not .def_103))) (let ((.def_105 (and .def_104 .def_102))) (let ((.def_106 (not .def_105))) (let ((.def_107 (not A15))) (let ((.def_108 (or .def_107 A19))) (let ((.def_109 (not .def_108))) (let ((.def_110 (or A12 .def_60))) (let ((.def_111 (not .def_110))) (let ((.def_112 (= .def_111 .def_109))) (let ((.def_113 (or .def_112 .def_106))) (let ((.def_114 (not .def_113))) (let ((.def_115 (and .def_114 .def_100))) (let ((.def_116 (not .def_115))) (let ((.def_117 (and .def_116 .def_86))) (let ((.def_118 (and .def_117 .def_59))) (let ((.def_119 (and A13 A6))) (let ((.def_120 (not .def_119))) (let ((.def_121 (or A7 .def_87))) (let ((.def_122 (not .def_121))) (let ((.def_123 (and .def_122 .def_120))) (let ((.def_124 (not .def_123))) (let ((.def_125 (and A23 .def_8))) (let ((.def_126 (not .def_125))) (let ((.def_127 (or A13 .def_20))) (let ((.def_128 (or .def_127 .def_126))) (let ((.def_129 (not .def_128))) (let ((.def_130 (and .def_129 .def_124))) (let ((.def_131 (not .def_130))) (let ((.def_132 (and A6 .def_73))) (let ((.def_133 (not .def_132))) (let ((.def_134 (or .def_87 .def_107))) (let ((.def_135 (not .def_134))) (let ((.def_136 (= .def_135 .def_133))) (let ((.def_137 (not .def_136))) (let ((.def_138 (or A1 A18))) (let ((.def_139 (not .def_138))) (let ((.def_140 (not A14))) (let ((.def_141 (or .def_140 A11))) (let ((.def_142 (not .def_141))) (let ((.def_143 (and .def_142 .def_139))) (let ((.def_144 (not .def_143))) (let ((.def_145 (and .def_144 .def_137))) (let ((.def_146 (or .def_145 .def_131))) (let ((.def_147 (or .def_5 A5))) (let ((.def_148 (or A5 A0))) (let ((.def_149 (not .def_148))) (let ((.def_150 (and .def_149 .def_147))) (let ((.def_151 (not .def_150))) (let ((.def_152 (or A23 A2))) (let ((.def_153 (not .def_152))) (let ((.def_154 (not A18))) (let ((.def_155 (or A3 .def_154))) (let ((.def_156 (or .def_155 .def_153))) (let ((.def_157 (not .def_156))) (let ((.def_158 (or .def_157 .def_151))) (let ((.def_159 (not .def_158))) (let ((.def_160 (and A4 A12))) (let ((.def_161 (not .def_160))) (let ((.def_162 (and A17 .def_15))) (let ((.def_163 (not .def_162))) (let ((.def_164 (or .def_163 .def_161))) (let ((.def_165 (= A22 A24))) (let ((.def_166 (not .def_165))) (let ((.def_167 (or A15 A20))) (let ((.def_168 (or .def_167 .def_166))) (let ((.def_169 (or .def_168 .def_164))) (let ((.def_170 (or .def_169 .def_159))) (let ((.def_171 (and .def_170 .def_146))) (let ((.def_172 (not .def_171))) (let ((.def_173 (or A1 .def_9))) (let ((.def_174 (not .def_173))) (let ((.def_175 (not A21))) (let ((.def_176 (and .def_175 .def_140))) (let ((.def_177 (and .def_176 .def_174))) (let ((.def_178 (not .def_177))) (let ((.def_179 (or .def_154 A3))) (let ((.def_180 (= A15 .def_87))) (let ((.def_181 (and .def_180 .def_179))) (let ((.def_182 (not .def_181))) (let ((.def_183 (and .def_182 .def_178))) (let ((.def_184 (= A1 .def_52))) (let ((.def_185 (or .def_8 .def_28))) (let ((.def_186 (not .def_185))) (let ((.def_187 (= .def_186 .def_184))) (let ((.def_188 (not .def_187))) (let ((.def_189 (= .def_175 .def_31))) (let ((.def_190 (or .def_60 .def_8))) (let ((.def_191 (or .def_190 .def_189))) (let ((.def_192 (and .def_191 .def_188))) (let ((.def_193 (and .def_192 .def_183))) (let ((.def_194 (= A11 A6))) (let ((.def_195 (and A13 A5))) (let ((.def_196 (not .def_195))) (let ((.def_197 (or .def_196 .def_194))) (let ((.def_198 (= A20 A14))) (let ((.def_199 (or .def_51 .def_92))) (let ((.def_200 (not .def_199))) (let ((.def_201 (or .def_200 .def_198))) (let ((.def_202 (or .def_201 .def_197))) (let ((.def_203 (and .def_67 .def_44))) (let ((.def_204 (and A22 A21))) (let ((.def_205 (or .def_204 .def_203))) (let ((.def_206 (or A4 .def_5))) (let ((.def_207 (not .def_206))) (let ((.def_208 (or .def_20 A23))) (let ((.def_209 (or .def_208 .def_207))) (let ((.def_210 (and .def_209 .def_205))) (let ((.def_211 (or .def_210 .def_202))) (let ((.def_212 (and .def_211 .def_193))) (let ((.def_213 (and .def_212 .def_172))) (let ((.def_214 (and .def_213 .def_118))) (let ((.def_215 (and A17 A18))) (let ((.def_216 (and .def_31 .def_6))) (let ((.def_217 (not .def_216))) (let ((.def_218 (and .def_217 .def_215))) (let ((.def_219 (not .def_218))) (let ((.def_220 (or A20 .def_95))) (let ((.def_221 (not .def_220))) (let ((.def_222 (and A6 .def_9))) (let ((.def_223 (not .def_222))) (let ((.def_224 (= .def_223 .def_221))) (let ((.def_225 (and .def_224 .def_219))) (let ((.def_226 (not .def_225))) (let ((.def_227 (and .def_6 A24))) (let ((.def_228 (not .def_227))) (let ((.def_229 (= A13 .def_9))) (let ((.def_230 (not .def_229))) (let ((.def_231 (or .def_230 .def_228))) (let ((.def_232 (not .def_231))) (let ((.def_233 (and A20 .def_38))) (let ((.def_234 (and .def_60 A12))) (let ((.def_235 (not .def_234))) (let ((.def_236 (= .def_235 .def_233))) (let ((.def_237 (and .def_236 .def_232))) (let ((.def_238 (or .def_237 .def_226))) (let ((.def_239 (and A21 .def_107))) (let ((.def_240 (and .def_52 .def_175))) (let ((.def_241 (= .def_240 .def_239))) (let ((.def_242 (and .def_92 .def_44))) (let ((.def_243 (not .def_242))) (let ((.def_244 (or .def_38 .def_6))) (let ((.def_245 (not .def_244))) (let ((.def_246 (or .def_245 .def_243))) (let ((.def_247 (not .def_246))) (let ((.def_248 (or .def_247 .def_241))) (let ((.def_249 (= .def_5 A23))) (let ((.def_250 (and .def_9 .def_31))) (let ((.def_251 (not .def_250))) (let ((.def_252 (or .def_251 .def_249))) (let ((.def_253 (and A15 .def_107))) (let ((.def_254 (not A12))) (let ((.def_255 (and A0 .def_254))) (let ((.def_256 (or .def_255 .def_253))) (let ((.def_257 (not .def_256))) (let ((.def_258 (and .def_257 .def_252))) (let ((.def_259 (not .def_258))) (let ((.def_260 (or .def_259 .def_248))) (let ((.def_261 (and .def_260 .def_238))) (let ((.def_262 (or A5 .def_38))) (let ((.def_263 (not .def_262))) (let ((.def_264 (= .def_140 .def_92))) (let ((.def_265 (or .def_264 .def_263))) (let ((.def_266 (and .def_38 A24))) (let ((.def_267 (not .def_266))) (let ((.def_268 (and A2 .def_87))) (let ((.def_269 (or .def_268 .def_267))) (let ((.def_270 (and .def_269 .def_265))) (let ((.def_271 (or A2 .def_15))) (let ((.def_272 (not .def_271))) (let ((.def_273 (and A11 .def_8))) (let ((.def_274 (and .def_273 .def_272))) (let ((.def_275 (or .def_95 A24))) (let ((.def_276 (not .def_275))) (let ((.def_277 (or .def_20 A5))) (let ((.def_278 (and .def_277 .def_276))) (let ((.def_279 (not .def_278))) (let ((.def_280 (or .def_279 .def_274))) (let ((.def_281 (not .def_280))) (let ((.def_282 (or .def_281 .def_270))) (let ((.def_283 (and A9 A22))) (let ((.def_284 (or .def_73 .def_44))) (let ((.def_285 (not .def_284))) (let ((.def_286 (or .def_285 .def_283))) (let ((.def_287 (not .def_286))) (let ((.def_288 (or A21 A16))) (let ((.def_289 (or A10 A23))) (let ((.def_290 (and .def_289 .def_288))) (let ((.def_291 (not .def_290))) (let ((.def_292 (and .def_291 .def_287))) (let ((.def_293 (not .def_292))) (let ((.def_294 (and .def_8 A7))) (let ((.def_295 (not .def_294))) (let ((.def_296 (and .def_5 A10))) (let ((.def_297 (not .def_296))) (let ((.def_298 (or .def_297 .def_295))) (let ((.def_299 (or .def_175 A18))) (let ((.def_300 (or A5 .def_107))) (let ((.def_301 (not .def_300))) (let ((.def_302 (or .def_301 .def_299))) (let ((.def_303 (not .def_302))) (let ((.def_304 (or .def_303 .def_298))) (let ((.def_305 (not .def_304))) (let ((.def_306 (= .def_305 .def_293))) (let ((.def_307 (or .def_306 .def_282))) (let ((.def_308 (not .def_307))) (let ((.def_309 (or .def_308 .def_261))) (let ((.def_310 (or A5 .def_6))) (let ((.def_311 (and A11 A22))) (let ((.def_312 (not .def_311))) (let ((.def_313 (and .def_312 .def_310))) (let ((.def_314 (not .def_313))) (let ((.def_315 (and .def_154 A18))) (let ((.def_316 (not .def_315))) (let ((.def_317 (or .def_5 .def_107))) (let ((.def_318 (or .def_317 .def_316))) (let ((.def_319 (= .def_318 .def_314))) (let ((.def_320 (or .def_73 A10))) (let ((.def_321 (or A7 .def_60))) (let ((.def_322 (not .def_321))) (let ((.def_323 (and .def_322 .def_320))) (let ((.def_324 (= A7 A19))) (let ((.def_325 (not .def_324))) (let ((.def_326 (= A2 A8))) (let ((.def_327 (and .def_326 .def_325))) (let ((.def_328 (not .def_327))) (let ((.def_329 (and .def_328 .def_323))) (let ((.def_330 (not .def_329))) (let ((.def_331 (and .def_330 .def_319))) (let ((.def_332 (or .def_5 .def_95))) (let ((.def_333 (= .def_31 .def_1))) (let ((.def_334 (not .def_333))) (let ((.def_335 (or .def_334 .def_332))) (let ((.def_336 (not .def_335))) (let ((.def_337 (or A10 .def_52))) (let ((.def_338 (not .def_337))) (let ((.def_339 (and A24 .def_28))) (let ((.def_340 (not .def_339))) (let ((.def_341 (and .def_340 .def_338))) (let ((.def_342 (or .def_341 .def_336))) (let ((.def_343 (not .def_342))) (let ((.def_344 (not A13))) (let ((.def_345 (or A12 .def_344))) (let ((.def_346 (or A15 A2))) (let ((.def_347 (and .def_346 .def_345))) (let ((.def_348 (not .def_347))) (let ((.def_349 (and A3 A24))) (let ((.def_350 (or .def_9 .def_67))) (let ((.def_351 (not .def_350))) (let ((.def_352 (or .def_351 .def_349))) (let ((.def_353 (not .def_352))) (let ((.def_354 (and .def_353 .def_348))) (let ((.def_355 (and .def_354 .def_343))) (let ((.def_356 (= .def_355 .def_331))) (let ((.def_357 (not .def_356))) (let ((.def_358 (or A23 .def_5))) (let ((.def_359 (or A10 .def_6))) (let ((.def_360 (or .def_359 .def_358))) (let ((.def_361 (and A17 A14))) (let ((.def_362 (not .def_361))) (let ((.def_363 (or A7 A4))) (let ((.def_364 (or .def_363 .def_362))) (let ((.def_365 (= .def_364 .def_360))) (let ((.def_366 (not .def_365))) (let ((.def_367 (and .def_44 A13))) (let ((.def_368 (not .def_367))) (let ((.def_369 (and .def_15 .def_28))) (let ((.def_370 (and .def_369 .def_368))) (let ((.def_371 (not .def_370))) (let ((.def_372 (or .def_52 A16))) (let ((.def_373 (or .def_73 A0))) (let ((.def_374 (not .def_373))) (let ((.def_375 (and .def_374 .def_372))) (let ((.def_376 (and .def_375 .def_371))) (let ((.def_377 (or .def_376 .def_366))) (let ((.def_378 (not .def_377))) (let ((.def_379 (and A16 .def_92))) (let ((.def_380 (= .def_52 .def_8))) (let ((.def_381 (or .def_380 .def_379))) (let ((.def_382 (and A1 A11))) (let ((.def_383 (and A16 A20))) (let ((.def_384 (or .def_383 .def_382))) (let ((.def_385 (and .def_384 .def_381))) (let ((.def_386 (and A21 A0))) (let ((.def_387 (and A20 .def_92))) (let ((.def_388 (= .def_387 .def_386))) (let ((.def_389 (and A19 A12))) (let ((.def_390 (and A3 .def_254))) (let ((.def_391 (not .def_390))) (let ((.def_392 (and .def_391 .def_389))) (let ((.def_393 (not .def_392))) (let ((.def_394 (and .def_393 .def_388))) (let ((.def_395 (not .def_394))) (let ((.def_396 (and .def_395 .def_385))) (let ((.def_397 (not .def_396))) (let ((.def_398 (or .def_397 .def_378))) (let ((.def_399 (or .def_398 .def_357))) (let ((.def_400 (not .def_399))) (let ((.def_401 (and .def_400 .def_309))) (let ((.def_402 (and .def_401 .def_214))) (let ((.def_403 (not .def_402))) .def_403)))))))))))))))))))))))))))))))))))))))))))))))))))))))))))))))))))))))))))))))))))))))))))))))))))))))))))))))))))))))))))))))))))))))))))))))))))))))))))))))))))))))))))))))))))))))))))))))))))))))))))))))))))))))))))))))))))))))))))))))))))))))))))))))))))))))))))))))))))))))))))))))))))))))))))))))))))))))))))))))))))))))))))))))))))))))))))))))))))))))))))))))))))))))))))))))))))))))))))))))))))))
(check-sat)
